NAME : expansion
TYPE : TSP
DIMENSION : 50
EDGE_WEIGHT_TYPE : EUC_2D
NODE_COORD_SECTION
1 871312 677464
2 638661 600999
3 712494 661804
4 727658 601381
5 612152 362994
6 666840 577806
7 665908 826957
8 794411 311384
9 760327 218069
10 995696 154368
11 649999 736388
12 848830 677423
13 785028 579266
14 768562 982624
15 284380 273498
16 672251 835971
17 586959 156589
18 543089 702220
19 747049 876652
20 762919 949905
21 237923 458815
22 706412 655570
23 782744 362277
24 846638 585444
25 795850 900342
26 983573 4210
27 708517 344567
28 875841 699253
29 544563 739179
30 584941 795143
31 550907 727747
32 628087 600239
33 703212 589913
34 771305 322917
35 838016 229876
36 754085 708101
37 863848 355740
38 648433 18667
39 613638 342726
40 796313 655912
41 711486 627859
42 885240 673610
43 636018 590545
44 764658 629223
45 567255 668175
46 590231 699599
47 545800 734824
48 632208 778521
49 926423 166280
50 884062 366338
EOF
